12
00 15 40 50 60 70 80 90 10 11 12 15
05 00 23 08 09 10 11 12 13 14 15 16
02 03 00 05 06 07 08 09 10 11 12 17
07 08 09 00 11 12 02 03 04 05 06 18
70 80 90 10 00 12 02 18 40 50 60 59
50 60 70 80 90 00 06 10 04 05 06 58
21 22 23 24 25 26 00 28 29 30 31 57
07 08 09 10 11 12 02 00 04 05 06 06
70 80 90 10 11 12 02 18 00 50 60 01
50 60 70 80 90 05 06 10 09 00 06 90
02 03 04 05 06 07 08 09 10 11 00 13
50 60 70 80 90 05 06 10 09 00 06 00